100 1000
53 88
70 85
20 59
41 100
12 94
71 64
37 79
87 75
51 18
64 38
63 47
50 11
73 56
83 12
75 96
60 54
96 23
70 6
76 19
25 31
27 30
89 32
93 21
40 31
41 4
89 30
93 3
46 12
16 21
4 60
41 42
29 42
99 78
82 6
42 72
14 25
69 96
75 21
20 77
20 36
56 42
23 20
92 7
71 46
70 19
1 24
63 95
18 3
11 93
68 73
33 62
6 91
82 100
69 58
78 57
48 3
95 32
42 5
53 57
99 50
15 3
76 88
64 67
39 97
48 24
83 37
21 41
75 36
49 98
73 52
85 75
28 7
31 57
86 23
63 55
12 93
71 4
35 17
21 5
17 13
73 46
18 48
7 28
51 24
94 70
88 85
46 48
77 48
80 55
95 93
31 6
80 8
32 12
45 50
5 95
30 66
51 92
63 25
43 80
9 16
